language Essence 1.3

letting course_load be
        function(1 --> 7, 2 --> 23, 3 --> 5, 4 --> 14, 5 --> 8, 6 --> 19, 7 --> 2, 8 --> 18, 9 --> 5, 10 --> 18,
                 11 --> 16, 12 --> 5, 13 --> 12, 14 --> 4, 15 --> 5, 16 --> 21, 17 --> 15, 18 --> 14, 19 --> 11,
                 20 --> 21, 21 --> 13, 22 --> 4, 23 --> 8, 24 --> 12, 25 --> 22, 26 --> 6, 27 --> 5, 28 --> 17,
                 29 --> 12, 30 --> 21, 31 --> 21)
letting courses_per_period_lb be 3
letting courses_per_period_ub be 8
letting load_per_period_lb be 48
letting load_per_period_ub be 50
letting n_courses be 31
letting n_periods be 8
letting prerequisite be relation()
